32      4       
11      14      16      16      
0       0       0       0       0       8       2       25      26      27      28      29      30      31      
3       2       1       1       15      1       3       
10      1       4       5       3       2       24      4       
4       4       6       10      1       3       23      22      5       
9       3       1       1       1       1       6       
2       1       8       1       8       2       21      7       
7       1       1       6       1       3       20      19      8       
6       3       5       3       1       2       18      9       
3       4       1       1       1       2       17      10      
6       1       5       10      2       1       11      
2       1       1       1       1       1       12      
1       3       3       1       7       1       13      
1       4       6       5       1       1       14      
6       10      1       1       5       1       15      
1       6       3       1       1       1       16      
10      1       7       2       3       1       32      
10      3       6       1       2       1       32      
7       1       1       7       1       1       32      
8       5       5       2       1       1       32      
7       3       4       1       13      1       32      
8       9       1       10      1       1       32      
9       1       1       2       2       1       32      
4       1       1       1       1       1       32      
10      1       6       16      1       1       32      
4       3       5       10      6       1       32      
9       2       2       1       3       1       32      
3       5       1       7       11      1       32      
8       1       9       5       15      1       32      
5       1       6       1       2       1       32      
2       1       3       6       4       1       32      
6       1       1       1       6       1       32      
0       0       0       0       0       0       
